
  23    0


   0  12 2 3 4 5 6 7 9 10 11 12 21 22 
   5   3 16 15 14 
   5   3 18 17 15 
   2   3 16 14 13 
   4   2 16 8 
   9   2 20 13 
   4   2 15 13 
   4   1 17 
  10   1 19 
   9   1 18 
  10   1 14 
   5   1 13 
   7   1 23
   9   1 23
   6   1 23
  10   1 23
   1   1 23
   5   1 23
   3   1 23
   9   1 23
   6   1 23
   6   1 23
   0   0 
